c File: flat200_3_0.col
c
c SOURCE: Joseph Culberson (joe@cs.ualberta.ca)
c DESCRIPTION: Quasi-random coloring problem
c              generated with flatness = 0
c                             probability = 0.036
c                             known coloring = 3
c                             random seed = 1032
c              Creation Date:  Wed Feb 24 10:39:46 1999
c Maximum degree = 8 Minimum degree = 1
c COLOR VERIFICATION: Using the permuted order
c under simple greedy yields the specified
c coloring number
c Color = 3 specified partitions = 3
c p edge 200 479
c cnf created by edge2cnf
p cnf 600 2237
-1 -2 0
-1 -3 0
-2 -3 0
1 2 3 0
-4 -5 0
-4 -6 0
-5 -6 0
4 5 6 0
-7 -8 0
-7 -9 0
-8 -9 0
7 8 9 0
-10 -11 0
-10 -12 0
-11 -12 0
10 11 12 0
-13 -14 0
-13 -15 0
-14 -15 0
13 14 15 0
-16 -17 0
-16 -18 0
-17 -18 0
16 17 18 0
-19 -20 0
-19 -21 0
-20 -21 0
19 20 21 0
-22 -23 0
-22 -24 0
-23 -24 0
22 23 24 0
-25 -26 0
-25 -27 0
-26 -27 0
25 26 27 0
-28 -29 0
-28 -30 0
-29 -30 0
28 29 30 0
-31 -32 0
-31 -33 0
-32 -33 0
31 32 33 0
-34 -35 0
-34 -36 0
-35 -36 0
34 35 36 0
-37 -38 0
-37 -39 0
-38 -39 0
37 38 39 0
-40 -41 0
-40 -42 0
-41 -42 0
40 41 42 0
-43 -44 0
-43 -45 0
-44 -45 0
43 44 45 0
-46 -47 0
-46 -48 0
-47 -48 0
46 47 48 0
-49 -50 0
-49 -51 0
-50 -51 0
49 50 51 0
-52 -53 0
-52 -54 0
-53 -54 0
52 53 54 0
-55 -56 0
-55 -57 0
-56 -57 0
55 56 57 0
-58 -59 0
-58 -60 0
-59 -60 0
58 59 60 0
-61 -62 0
-61 -63 0
-62 -63 0
61 62 63 0
-64 -65 0
-64 -66 0
-65 -66 0
64 65 66 0
-67 -68 0
-67 -69 0
-68 -69 0
67 68 69 0
-70 -71 0
-70 -72 0
-71 -72 0
70 71 72 0
-73 -74 0
-73 -75 0
-74 -75 0
73 74 75 0
-76 -77 0
-76 -78 0
-77 -78 0
76 77 78 0
-79 -80 0
-79 -81 0
-80 -81 0
79 80 81 0
-82 -83 0
-82 -84 0
-83 -84 0
82 83 84 0
-85 -86 0
-85 -87 0
-86 -87 0
85 86 87 0
-88 -89 0
-88 -90 0
-89 -90 0
88 89 90 0
-91 -92 0
-91 -93 0
-92 -93 0
91 92 93 0
-94 -95 0
-94 -96 0
-95 -96 0
94 95 96 0
-97 -98 0
-97 -99 0
-98 -99 0
97 98 99 0
-100 -101 0
-100 -102 0
-101 -102 0
100 101 102 0
-103 -104 0
-103 -105 0
-104 -105 0
103 104 105 0
-106 -107 0
-106 -108 0
-107 -108 0
106 107 108 0
-109 -110 0
-109 -111 0
-110 -111 0
109 110 111 0
-112 -113 0
-112 -114 0
-113 -114 0
112 113 114 0
-115 -116 0
-115 -117 0
-116 -117 0
115 116 117 0
-118 -119 0
-118 -120 0
-119 -120 0
118 119 120 0
-121 -122 0
-121 -123 0
-122 -123 0
121 122 123 0
-124 -125 0
-124 -126 0
-125 -126 0
124 125 126 0
-127 -128 0
-127 -129 0
-128 -129 0
127 128 129 0
-130 -131 0
-130 -132 0
-131 -132 0
130 131 132 0
-133 -134 0
-133 -135 0
-134 -135 0
133 134 135 0
-136 -137 0
-136 -138 0
-137 -138 0
136 137 138 0
-139 -140 0
-139 -141 0
-140 -141 0
139 140 141 0
-142 -143 0
-142 -144 0
-143 -144 0
142 143 144 0
-145 -146 0
-145 -147 0
-146 -147 0
145 146 147 0
-148 -149 0
-148 -150 0
-149 -150 0
148 149 150 0
-151 -152 0
-151 -153 0
-152 -153 0
151 152 153 0
-154 -155 0
-154 -156 0
-155 -156 0
154 155 156 0
-157 -158 0
-157 -159 0
-158 -159 0
157 158 159 0
-160 -161 0
-160 -162 0
-161 -162 0
160 161 162 0
-163 -164 0
-163 -165 0
-164 -165 0
163 164 165 0
-166 -167 0
-166 -168 0
-167 -168 0
166 167 168 0
-169 -170 0
-169 -171 0
-170 -171 0
169 170 171 0
-172 -173 0
-172 -174 0
-173 -174 0
172 173 174 0
-175 -176 0
-175 -177 0
-176 -177 0
175 176 177 0
-178 -179 0
-178 -180 0
-179 -180 0
178 179 180 0
-181 -182 0
-181 -183 0
-182 -183 0
181 182 183 0
-184 -185 0
-184 -186 0
-185 -186 0
184 185 186 0
-187 -188 0
-187 -189 0
-188 -189 0
187 188 189 0
-190 -191 0
-190 -192 0
-191 -192 0
190 191 192 0
-193 -194 0
-193 -195 0
-194 -195 0
193 194 195 0
-196 -197 0
-196 -198 0
-197 -198 0
196 197 198 0
-199 -200 0
-199 -201 0
-200 -201 0
199 200 201 0
-202 -203 0
-202 -204 0
-203 -204 0
202 203 204 0
-205 -206 0
-205 -207 0
-206 -207 0
205 206 207 0
-208 -209 0
-208 -210 0
-209 -210 0
208 209 210 0
-211 -212 0
-211 -213 0
-212 -213 0
211 212 213 0
-214 -215 0
-214 -216 0
-215 -216 0
214 215 216 0
-217 -218 0
-217 -219 0
-218 -219 0
217 218 219 0
-220 -221 0
-220 -222 0
-221 -222 0
220 221 222 0
-223 -224 0
-223 -225 0
-224 -225 0
223 224 225 0
-226 -227 0
-226 -228 0
-227 -228 0
226 227 228 0
-229 -230 0
-229 -231 0
-230 -231 0
229 230 231 0
-232 -233 0
-232 -234 0
-233 -234 0
232 233 234 0
-235 -236 0
-235 -237 0
-236 -237 0
235 236 237 0
-238 -239 0
-238 -240 0
-239 -240 0
238 239 240 0
-241 -242 0
-241 -243 0
-242 -243 0
241 242 243 0
-244 -245 0
-244 -246 0
-245 -246 0
244 245 246 0
-247 -248 0
-247 -249 0
-248 -249 0
247 248 249 0
-250 -251 0
-250 -252 0
-251 -252 0
250 251 252 0
-253 -254 0
-253 -255 0
-254 -255 0
253 254 255 0
-256 -257 0
-256 -258 0
-257 -258 0
256 257 258 0
-259 -260 0
-259 -261 0
-260 -261 0
259 260 261 0
-262 -263 0
-262 -264 0
-263 -264 0
262 263 264 0
-265 -266 0
-265 -267 0
-266 -267 0
265 266 267 0
-268 -269 0
-268 -270 0
-269 -270 0
268 269 270 0
-271 -272 0
-271 -273 0
-272 -273 0
271 272 273 0
-274 -275 0
-274 -276 0
-275 -276 0
274 275 276 0
-277 -278 0
-277 -279 0
-278 -279 0
277 278 279 0
-280 -281 0
-280 -282 0
-281 -282 0
280 281 282 0
-283 -284 0
-283 -285 0
-284 -285 0
283 284 285 0
-286 -287 0
-286 -288 0
-287 -288 0
286 287 288 0
-289 -290 0
-289 -291 0
-290 -291 0
289 290 291 0
-292 -293 0
-292 -294 0
-293 -294 0
292 293 294 0
-295 -296 0
-295 -297 0
-296 -297 0
295 296 297 0
-298 -299 0
-298 -300 0
-299 -300 0
298 299 300 0
-301 -302 0
-301 -303 0
-302 -303 0
301 302 303 0
-304 -305 0
-304 -306 0
-305 -306 0
304 305 306 0
-307 -308 0
-307 -309 0
-308 -309 0
307 308 309 0
-310 -311 0
-310 -312 0
-311 -312 0
310 311 312 0
-313 -314 0
-313 -315 0
-314 -315 0
313 314 315 0
-316 -317 0
-316 -318 0
-317 -318 0
316 317 318 0
-319 -320 0
-319 -321 0
-320 -321 0
319 320 321 0
-322 -323 0
-322 -324 0
-323 -324 0
322 323 324 0
-325 -326 0
-325 -327 0
-326 -327 0
325 326 327 0
-328 -329 0
-328 -330 0
-329 -330 0
328 329 330 0
-331 -332 0
-331 -333 0
-332 -333 0
331 332 333 0
-334 -335 0
-334 -336 0
-335 -336 0
334 335 336 0
-337 -338 0
-337 -339 0
-338 -339 0
337 338 339 0
-340 -341 0
-340 -342 0
-341 -342 0
340 341 342 0
-343 -344 0
-343 -345 0
-344 -345 0
343 344 345 0
-346 -347 0
-346 -348 0
-347 -348 0
346 347 348 0
-349 -350 0
-349 -351 0
-350 -351 0
349 350 351 0
-352 -353 0
-352 -354 0
-353 -354 0
352 353 354 0
-355 -356 0
-355 -357 0
-356 -357 0
355 356 357 0
-358 -359 0
-358 -360 0
-359 -360 0
358 359 360 0
-361 -362 0
-361 -363 0
-362 -363 0
361 362 363 0
-364 -365 0
-364 -366 0
-365 -366 0
364 365 366 0
-367 -368 0
-367 -369 0
-368 -369 0
367 368 369 0
-370 -371 0
-370 -372 0
-371 -372 0
370 371 372 0
-373 -374 0
-373 -375 0
-374 -375 0
373 374 375 0
-376 -377 0
-376 -378 0
-377 -378 0
376 377 378 0
-379 -380 0
-379 -381 0
-380 -381 0
379 380 381 0
-382 -383 0
-382 -384 0
-383 -384 0
382 383 384 0
-385 -386 0
-385 -387 0
-386 -387 0
385 386 387 0
-388 -389 0
-388 -390 0
-389 -390 0
388 389 390 0
-391 -392 0
-391 -393 0
-392 -393 0
391 392 393 0
-394 -395 0
-394 -396 0
-395 -396 0
394 395 396 0
-397 -398 0
-397 -399 0
-398 -399 0
397 398 399 0
-400 -401 0
-400 -402 0
-401 -402 0
400 401 402 0
-403 -404 0
-403 -405 0
-404 -405 0
403 404 405 0
-406 -407 0
-406 -408 0
-407 -408 0
406 407 408 0
-409 -410 0
-409 -411 0
-410 -411 0
409 410 411 0
-412 -413 0
-412 -414 0
-413 -414 0
412 413 414 0
-415 -416 0
-415 -417 0
-416 -417 0
415 416 417 0
-418 -419 0
-418 -420 0
-419 -420 0
418 419 420 0
-421 -422 0
-421 -423 0
-422 -423 0
421 422 423 0
-424 -425 0
-424 -426 0
-425 -426 0
424 425 426 0
-427 -428 0
-427 -429 0
-428 -429 0
427 428 429 0
-430 -431 0
-430 -432 0
-431 -432 0
430 431 432 0
-433 -434 0
-433 -435 0
-434 -435 0
433 434 435 0
-436 -437 0
-436 -438 0
-437 -438 0
436 437 438 0
-439 -440 0
-439 -441 0
-440 -441 0
439 440 441 0
-442 -443 0
-442 -444 0
-443 -444 0
442 443 444 0
-445 -446 0
-445 -447 0
-446 -447 0
445 446 447 0
-448 -449 0
-448 -450 0
-449 -450 0
448 449 450 0
-451 -452 0
-451 -453 0
-452 -453 0
451 452 453 0
-454 -455 0
-454 -456 0
-455 -456 0
454 455 456 0
-457 -458 0
-457 -459 0
-458 -459 0
457 458 459 0
-460 -461 0
-460 -462 0
-461 -462 0
460 461 462 0
-463 -464 0
-463 -465 0
-464 -465 0
463 464 465 0
-466 -467 0
-466 -468 0
-467 -468 0
466 467 468 0
-469 -470 0
-469 -471 0
-470 -471 0
469 470 471 0
-472 -473 0
-472 -474 0
-473 -474 0
472 473 474 0
-475 -476 0
-475 -477 0
-476 -477 0
475 476 477 0
-478 -479 0
-478 -480 0
-479 -480 0
478 479 480 0
-481 -482 0
-481 -483 0
-482 -483 0
481 482 483 0
-484 -485 0
-484 -486 0
-485 -486 0
484 485 486 0
-487 -488 0
-487 -489 0
-488 -489 0
487 488 489 0
-490 -491 0
-490 -492 0
-491 -492 0
490 491 492 0
-493 -494 0
-493 -495 0
-494 -495 0
493 494 495 0
-496 -497 0
-496 -498 0
-497 -498 0
496 497 498 0
-499 -500 0
-499 -501 0
-500 -501 0
499 500 501 0
-502 -503 0
-502 -504 0
-503 -504 0
502 503 504 0
-505 -506 0
-505 -507 0
-506 -507 0
505 506 507 0
-508 -509 0
-508 -510 0
-509 -510 0
508 509 510 0
-511 -512 0
-511 -513 0
-512 -513 0
511 512 513 0
-514 -515 0
-514 -516 0
-515 -516 0
514 515 516 0
-517 -518 0
-517 -519 0
-518 -519 0
517 518 519 0
-520 -521 0
-520 -522 0
-521 -522 0
520 521 522 0
-523 -524 0
-523 -525 0
-524 -525 0
523 524 525 0
-526 -527 0
-526 -528 0
-527 -528 0
526 527 528 0
-529 -530 0
-529 -531 0
-530 -531 0
529 530 531 0
-532 -533 0
-532 -534 0
-533 -534 0
532 533 534 0
-535 -536 0
-535 -537 0
-536 -537 0
535 536 537 0
-538 -539 0
-538 -540 0
-539 -540 0
538 539 540 0
-541 -542 0
-541 -543 0
-542 -543 0
541 542 543 0
-544 -545 0
-544 -546 0
-545 -546 0
544 545 546 0
-547 -548 0
-547 -549 0
-548 -549 0
547 548 549 0
-550 -551 0
-550 -552 0
-551 -552 0
550 551 552 0
-553 -554 0
-553 -555 0
-554 -555 0
553 554 555 0
-556 -557 0
-556 -558 0
-557 -558 0
556 557 558 0
-559 -560 0
-559 -561 0
-560 -561 0
559 560 561 0
-562 -563 0
-562 -564 0
-563 -564 0
562 563 564 0
-565 -566 0
-565 -567 0
-566 -567 0
565 566 567 0
-568 -569 0
-568 -570 0
-569 -570 0
568 569 570 0
-571 -572 0
-571 -573 0
-572 -573 0
571 572 573 0
-574 -575 0
-574 -576 0
-575 -576 0
574 575 576 0
-577 -578 0
-577 -579 0
-578 -579 0
577 578 579 0
-580 -581 0
-580 -582 0
-581 -582 0
580 581 582 0
-583 -584 0
-583 -585 0
-584 -585 0
583 584 585 0
-586 -587 0
-586 -588 0
-587 -588 0
586 587 588 0
-589 -590 0
-589 -591 0
-590 -591 0
589 590 591 0
-592 -593 0
-592 -594 0
-593 -594 0
592 593 594 0
-595 -596 0
-595 -597 0
-596 -597 0
595 596 597 0
-598 -599 0
-598 -600 0
-599 -600 0
598 599 600 0
-181 -1 0
-182 -2 0
-183 -3 0
-202 -1 0
-203 -2 0
-204 -3 0
-442 -1 0
-443 -2 0
-444 -3 0
-589 -1 0
-590 -2 0
-591 -3 0
-64 -4 0
-65 -5 0
-66 -6 0
-310 -4 0
-311 -5 0
-312 -6 0
-130 -7 0
-131 -8 0
-132 -9 0
-139 -7 0
-140 -8 0
-141 -9 0
-247 -7 0
-248 -8 0
-249 -9 0
-280 -7 0
-281 -8 0
-282 -9 0
-295 -7 0
-296 -8 0
-297 -9 0
-373 -7 0
-374 -8 0
-375 -9 0
-235 -10 0
-236 -11 0
-237 -12 0
-373 -10 0
-374 -11 0
-375 -12 0
-430 -10 0
-431 -11 0
-432 -12 0
-460 -10 0
-461 -11 0
-462 -12 0
-583 -10 0
-584 -11 0
-585 -12 0
-133 -13 0
-134 -14 0
-135 -15 0
-265 -13 0
-266 -14 0
-267 -15 0
-397 -13 0
-398 -14 0
-399 -15 0
-292 -16 0
-293 -17 0
-294 -18 0
-322 -16 0
-323 -17 0
-324 -18 0
-85 -19 0
-86 -20 0
-87 -21 0
-169 -19 0
-170 -20 0
-171 -21 0
-520 -19 0
-521 -20 0
-522 -21 0
-574 -19 0
-575 -20 0
-576 -21 0
-73 -22 0
-74 -23 0
-75 -24 0
-142 -22 0
-143 -23 0
-144 -24 0
-565 -22 0
-566 -23 0
-567 -24 0
-70 -25 0
-71 -26 0
-72 -27 0
-154 -25 0
-155 -26 0
-156 -27 0
-334 -25 0
-335 -26 0
-336 -27 0
-469 -25 0
-470 -26 0
-471 -27 0
-487 -25 0
-488 -26 0
-489 -27 0
-526 -25 0
-527 -26 0
-528 -27 0
-229 -28 0
-230 -29 0
-231 -30 0
-478 -28 0
-479 -29 0
-480 -30 0
-496 -28 0
-497 -29 0
-498 -30 0
-538 -28 0
-539 -29 0
-540 -30 0
-556 -28 0
-557 -29 0
-558 -30 0
-151 -31 0
-152 -32 0
-153 -33 0
-208 -31 0
-209 -32 0
-210 -33 0
-238 -31 0
-239 -32 0
-240 -33 0
-322 -31 0
-323 -32 0
-324 -33 0
-349 -31 0
-350 -32 0
-351 -33 0
-517 -31 0
-518 -32 0
-519 -33 0
-520 -31 0
-521 -32 0
-522 -33 0
-574 -31 0
-575 -32 0
-576 -33 0
-502 -34 0
-503 -35 0
-504 -36 0
-571 -34 0
-572 -35 0
-573 -36 0
-586 -34 0
-587 -35 0
-588 -36 0
-595 -34 0
-596 -35 0
-597 -36 0
-196 -37 0
-197 -38 0
-198 -39 0
-280 -37 0
-281 -38 0
-282 -39 0
-469 -37 0
-470 -38 0
-471 -39 0
-130 -40 0
-131 -41 0
-132 -42 0
-187 -40 0
-188 -41 0
-189 -42 0
-220 -40 0
-221 -41 0
-222 -42 0
-400 -40 0
-401 -41 0
-402 -42 0
-556 -40 0
-557 -41 0
-558 -42 0
-583 -40 0
-584 -41 0
-585 -42 0
-208 -43 0
-209 -44 0
-210 -45 0
-211 -43 0
-212 -44 0
-213 -45 0
-298 -43 0
-299 -44 0
-300 -45 0
-463 -43 0
-464 -44 0
-465 -45 0
-208 -46 0
-209 -47 0
-210 -48 0
-259 -46 0
-260 -47 0
-261 -48 0
-376 -46 0
-377 -47 0
-378 -48 0
-382 -46 0
-383 -47 0
-384 -48 0
-451 -46 0
-452 -47 0
-453 -48 0
-493 -46 0
-494 -47 0
-495 -48 0
-517 -46 0
-518 -47 0
-519 -48 0
-190 -49 0
-191 -50 0
-192 -51 0
-220 -49 0
-221 -50 0
-222 -51 0
-262 -49 0
-263 -50 0
-264 -51 0
-379 -49 0
-380 -50 0
-381 -51 0
-469 -49 0
-470 -50 0
-471 -51 0
-517 -49 0
-518 -50 0
-519 -51 0
-565 -49 0
-566 -50 0
-567 -51 0
-571 -49 0
-572 -50 0
-573 -51 0
-97 -52 0
-98 -53 0
-99 -54 0
-310 -52 0
-311 -53 0
-312 -54 0
-331 -52 0
-332 -53 0
-333 -54 0
-250 -55 0
-251 -56 0
-252 -57 0
-118 -58 0
-119 -59 0
-120 -60 0
-337 -58 0
-338 -59 0
-339 -60 0
-367 -58 0
-368 -59 0
-369 -60 0
-433 -58 0
-434 -59 0
-435 -60 0
-451 -58 0
-452 -59 0
-453 -60 0
-517 -58 0
-518 -59 0
-519 -60 0
-193 -61 0
-194 -62 0
-195 -63 0
-274 -61 0
-275 -62 0
-276 -63 0
-505 -61 0
-506 -62 0
-507 -63 0
-583 -61 0
-584 -62 0
-585 -63 0
-154 -64 0
-155 -65 0
-156 -66 0
-232 -64 0
-233 -65 0
-234 -66 0
-244 -64 0
-245 -65 0
-246 -66 0
-358 -64 0
-359 -65 0
-360 -66 0
-541 -64 0
-542 -65 0
-543 -66 0
-586 -64 0
-587 -65 0
-588 -66 0
-76 -67 0
-77 -68 0
-78 -69 0
-268 -67 0
-269 -68 0
-270 -69 0
-295 -67 0
-296 -68 0
-297 -69 0
-334 -67 0
-335 -68 0
-336 -69 0
-346 -67 0
-347 -68 0
-348 -69 0
-385 -67 0
-386 -68 0
-387 -69 0
-547 -67 0
-548 -68 0
-549 -69 0
-133 -70 0
-134 -71 0
-135 -72 0
-256 -70 0
-257 -71 0
-258 -72 0
-442 -70 0
-443 -71 0
-444 -72 0
-478 -70 0
-479 -71 0
-480 -72 0
-322 -73 0
-323 -74 0
-324 -75 0
-463 -73 0
-464 -74 0
-465 -75 0
-529 -73 0
-530 -74 0
-531 -75 0
-568 -73 0
-569 -74 0
-570 -75 0
-574 -73 0
-575 -74 0
-576 -75 0
-577 -73 0
-578 -74 0
-579 -75 0
-193 -76 0
-194 -77 0
-195 -78 0
-349 -76 0
-350 -77 0
-351 -78 0
-439 -76 0
-440 -77 0
-441 -78 0
-547 -76 0
-548 -77 0
-549 -78 0
-127 -79 0
-128 -80 0
-129 -81 0
-283 -79 0
-284 -80 0
-285 -81 0
-349 -79 0
-350 -80 0
-351 -81 0
-352 -79 0
-353 -80 0
-354 -81 0
-397 -79 0
-398 -80 0
-399 -81 0
-445 -79 0
-446 -80 0
-447 -81 0
-142 -82 0
-143 -83 0
-144 -84 0
-148 -82 0
-149 -83 0
-150 -84 0
-220 -85 0
-221 -86 0
-222 -87 0
-547 -85 0
-548 -86 0
-549 -87 0
-565 -85 0
-566 -86 0
-567 -87 0
-511 -88 0
-512 -89 0
-513 -90 0
-514 -88 0
-515 -89 0
-516 -90 0
-232 -91 0
-233 -92 0
-234 -93 0
-235 -91 0
-236 -92 0
-237 -93 0
-280 -91 0
-281 -92 0
-282 -93 0
-316 -91 0
-317 -92 0
-318 -93 0
-490 -91 0
-491 -92 0
-492 -93 0
-589 -91 0
-590 -92 0
-591 -93 0
-106 -94 0
-107 -95 0
-108 -96 0
-151 -94 0
-152 -95 0
-153 -96 0
-244 -94 0
-245 -95 0
-246 -96 0
-295 -94 0
-296 -95 0
-297 -96 0
-418 -97 0
-419 -98 0
-420 -99 0
-163 -100 0
-164 -101 0
-165 -102 0
-205 -100 0
-206 -101 0
-207 -102 0
-232 -100 0
-233 -101 0
-234 -102 0
-562 -100 0
-563 -101 0
-564 -102 0
-367 -103 0
-368 -104 0
-369 -105 0
-523 -103 0
-524 -104 0
-525 -105 0
-130 -106 0
-131 -107 0
-132 -108 0
-262 -106 0
-263 -107 0
-264 -108 0
-448 -106 0
-449 -107 0
-450 -108 0
-481 -106 0
-482 -107 0
-483 -108 0
-115 -109 0
-116 -110 0
-117 -111 0
-121 -109 0
-122 -110 0
-123 -111 0
-145 -109 0
-146 -110 0
-147 -111 0
-355 -112 0
-356 -113 0
-357 -114 0
-520 -112 0
-521 -113 0
-522 -114 0
-577 -112 0
-578 -113 0
-579 -114 0
-202 -115 0
-203 -116 0
-204 -117 0
-298 -115 0
-299 -116 0
-300 -117 0
-565 -115 0
-566 -116 0
-567 -117 0
-172 -118 0
-173 -119 0
-174 -120 0
-223 -118 0
-224 -119 0
-225 -120 0
-241 -118 0
-242 -119 0
-243 -120 0
-364 -118 0
-365 -119 0
-366 -120 0
-406 -118 0
-407 -119 0
-408 -120 0
-439 -118 0
-440 -119 0
-441 -120 0
-517 -118 0
-518 -119 0
-519 -120 0
-250 -121 0
-251 -122 0
-252 -123 0
-289 -124 0
-290 -125 0
-291 -126 0
-352 -124 0
-353 -125 0
-354 -126 0
-358 -124 0
-359 -125 0
-360 -126 0
-391 -124 0
-392 -125 0
-393 -126 0
-406 -124 0
-407 -125 0
-408 -126 0
-253 -127 0
-254 -128 0
-255 -129 0
-472 -127 0
-473 -128 0
-474 -129 0
-529 -127 0
-530 -128 0
-531 -129 0
-142 -130 0
-143 -131 0
-144 -132 0
-412 -130 0
-413 -131 0
-414 -132 0
-457 -130 0
-458 -131 0
-459 -132 0
-511 -130 0
-512 -131 0
-513 -132 0
-217 -133 0
-218 -134 0
-219 -135 0
-415 -133 0
-416 -134 0
-417 -135 0
-307 -136 0
-308 -137 0
-309 -138 0
-370 -136 0
-371 -137 0
-372 -138 0
-376 -136 0
-377 -137 0
-378 -138 0
-421 -136 0
-422 -137 0
-423 -138 0
-439 -136 0
-440 -137 0
-441 -138 0
-157 -139 0
-158 -140 0
-159 -141 0
-337 -142 0
-338 -143 0
-339 -144 0
-529 -142 0
-530 -143 0
-531 -144 0
-592 -142 0
-593 -143 0
-594 -144 0
-223 -145 0
-224 -146 0
-225 -147 0
-232 -145 0
-233 -146 0
-234 -147 0
-319 -145 0
-320 -146 0
-321 -147 0
-385 -145 0
-386 -146 0
-387 -147 0
-391 -148 0
-392 -149 0
-393 -150 0
-412 -148 0
-413 -149 0
-414 -150 0
-430 -148 0
-431 -149 0
-432 -150 0
-484 -148 0
-485 -149 0
-486 -150 0
-538 -148 0
-539 -149 0
-540 -150 0
-313 -151 0
-314 -152 0
-315 -153 0
-397 -151 0
-398 -152 0
-399 -153 0
-436 -151 0
-437 -152 0
-438 -153 0
-484 -151 0
-485 -152 0
-486 -153 0
-553 -151 0
-554 -152 0
-555 -153 0
-223 -154 0
-224 -155 0
-225 -156 0
-325 -154 0
-326 -155 0
-327 -156 0
-364 -154 0
-365 -155 0
-366 -156 0
-580 -154 0
-581 -155 0
-582 -156 0
-505 -157 0
-506 -158 0
-507 -159 0
-253 -160 0
-254 -161 0
-255 -162 0
-430 -160 0
-431 -161 0
-432 -162 0
-478 -160 0
-479 -161 0
-480 -162 0
-517 -160 0
-518 -161 0
-519 -162 0
-385 -163 0
-386 -164 0
-387 -165 0
-391 -163 0
-392 -164 0
-393 -165 0
-406 -163 0
-407 -164 0
-408 -165 0
-475 -163 0
-476 -164 0
-477 -165 0
-529 -163 0
-530 -164 0
-531 -165 0
-241 -166 0
-242 -167 0
-243 -168 0
-412 -166 0
-413 -167 0
-414 -168 0
-475 -166 0
-476 -167 0
-477 -168 0
-499 -166 0
-500 -167 0
-501 -168 0
-439 -169 0
-440 -170 0
-441 -171 0
-580 -169 0
-581 -170 0
-582 -171 0
-295 -172 0
-296 -173 0
-297 -174 0
-358 -172 0
-359 -173 0
-360 -174 0
-580 -172 0
-581 -173 0
-582 -174 0
-325 -175 0
-326 -176 0
-327 -177 0
-364 -175 0
-365 -176 0
-366 -177 0
-481 -175 0
-482 -176 0
-483 -177 0
-571 -175 0
-572 -176 0
-573 -177 0
-376 -178 0
-377 -179 0
-378 -180 0
-418 -178 0
-419 -179 0
-420 -180 0
-262 -181 0
-263 -182 0
-264 -183 0
-268 -181 0
-269 -182 0
-270 -183 0
-445 -181 0
-446 -182 0
-447 -183 0
-562 -181 0
-563 -182 0
-564 -183 0
-232 -184 0
-233 -185 0
-234 -186 0
-379 -184 0
-380 -185 0
-381 -186 0
-403 -184 0
-404 -185 0
-405 -186 0
-445 -184 0
-446 -185 0
-447 -186 0
-484 -184 0
-485 -185 0
-486 -186 0
-595 -184 0
-596 -185 0
-597 -186 0
-343 -187 0
-344 -188 0
-345 -189 0
-394 -187 0
-395 -188 0
-396 -189 0
-544 -187 0
-545 -188 0
-546 -189 0
-214 -190 0
-215 -191 0
-216 -192 0
-268 -190 0
-269 -191 0
-270 -192 0
-358 -190 0
-359 -191 0
-360 -192 0
-409 -190 0
-410 -191 0
-411 -192 0
-271 -193 0
-272 -194 0
-273 -195 0
-334 -193 0
-335 -194 0
-336 -195 0
-493 -193 0
-494 -194 0
-495 -195 0
-577 -193 0
-578 -194 0
-579 -195 0
-439 -196 0
-440 -197 0
-441 -198 0
-502 -196 0
-503 -197 0
-504 -198 0
-541 -196 0
-542 -197 0
-543 -198 0
-580 -196 0
-581 -197 0
-582 -198 0
-202 -199 0
-203 -200 0
-204 -201 0
-259 -199 0
-260 -200 0
-261 -201 0
-481 -199 0
-482 -200 0
-483 -201 0
-310 -202 0
-311 -203 0
-312 -204 0
-361 -202 0
-362 -203 0
-363 -204 0
-517 -202 0
-518 -203 0
-519 -204 0
-562 -202 0
-563 -203 0
-564 -204 0
-475 -205 0
-476 -206 0
-477 -207 0
-502 -205 0
-503 -206 0
-504 -207 0
-244 -208 0
-245 -209 0
-246 -210 0
-412 -208 0
-413 -209 0
-414 -210 0
-421 -208 0
-422 -209 0
-423 -210 0
-223 -211 0
-224 -212 0
-225 -213 0
-229 -211 0
-230 -212 0
-231 -213 0
-349 -211 0
-350 -212 0
-351 -213 0
-505 -211 0
-506 -212 0
-507 -213 0
-370 -214 0
-371 -215 0
-372 -216 0
-496 -214 0
-497 -215 0
-498 -216 0
-427 -217 0
-428 -218 0
-429 -219 0
-274 -220 0
-275 -221 0
-276 -222 0
-385 -220 0
-386 -221 0
-387 -222 0
-295 -223 0
-296 -224 0
-297 -225 0
-325 -223 0
-326 -224 0
-327 -225 0
-376 -223 0
-377 -224 0
-378 -225 0
-418 -223 0
-419 -224 0
-420 -225 0
-457 -226 0
-458 -227 0
-459 -228 0
-478 -226 0
-479 -227 0
-480 -228 0
-523 -226 0
-524 -227 0
-525 -228 0
-379 -229 0
-380 -230 0
-381 -231 0
-514 -229 0
-515 -230 0
-516 -231 0
-259 -232 0
-260 -233 0
-261 -234 0
-382 -232 0
-383 -233 0
-384 -234 0
-562 -232 0
-563 -233 0
-564 -234 0
-400 -235 0
-401 -236 0
-402 -237 0
-406 -235 0
-407 -236 0
-408 -237 0
-415 -235 0
-416 -236 0
-417 -237 0
-439 -235 0
-440 -236 0
-441 -237 0
-304 -238 0
-305 -239 0
-306 -240 0
-502 -238 0
-503 -239 0
-504 -240 0
-559 -238 0
-560 -239 0
-561 -240 0
-364 -241 0
-365 -242 0
-366 -243 0
-382 -241 0
-383 -242 0
-384 -243 0
-457 -241 0
-458 -242 0
-459 -243 0
-592 -241 0
-593 -242 0
-594 -243 0
-265 -244 0
-266 -245 0
-267 -246 0
-286 -244 0
-287 -245 0
-288 -246 0
-325 -244 0
-326 -245 0
-327 -246 0
-550 -244 0
-551 -245 0
-552 -246 0
-283 -250 0
-284 -251 0
-285 -252 0
-508 -250 0
-509 -251 0
-510 -252 0
-463 -253 0
-464 -254 0
-465 -255 0
-559 -253 0
-560 -254 0
-561 -255 0
-388 -256 0
-389 -257 0
-390 -258 0
-436 -256 0
-437 -257 0
-438 -258 0
-472 -256 0
-473 -257 0
-474 -258 0
-526 -256 0
-527 -257 0
-528 -258 0
-589 -256 0
-590 -257 0
-591 -258 0
-514 -259 0
-515 -260 0
-516 -261 0
-550 -259 0
-551 -260 0
-552 -261 0
-307 -262 0
-308 -263 0
-309 -264 0
-421 -262 0
-422 -263 0
-423 -264 0
-469 -262 0
-470 -263 0
-471 -264 0
-496 -262 0
-497 -263 0
-498 -264 0
-535 -262 0
-536 -263 0
-537 -264 0
-277 -268 0
-278 -269 0
-279 -270 0
-310 -268 0
-311 -269 0
-312 -270 0
-577 -268 0
-578 -269 0
-579 -270 0
-499 -271 0
-500 -272 0
-501 -273 0
-508 -271 0
-509 -272 0
-510 -273 0
-538 -271 0
-539 -272 0
-540 -273 0
-313 -274 0
-314 -275 0
-315 -276 0
-376 -274 0
-377 -275 0
-378 -276 0
-409 -274 0
-410 -275 0
-411 -276 0
-457 -274 0
-458 -275 0
-459 -276 0
-571 -274 0
-572 -275 0
-573 -276 0
-343 -277 0
-344 -278 0
-345 -279 0
-544 -277 0
-545 -278 0
-546 -279 0
-331 -280 0
-332 -281 0
-333 -282 0
-376 -280 0
-377 -281 0
-378 -282 0
-379 -280 0
-380 -281 0
-381 -282 0
-445 -280 0
-446 -281 0
-447 -282 0
-301 -283 0
-302 -284 0
-303 -285 0
-337 -283 0
-338 -284 0
-339 -285 0
-490 -286 0
-491 -287 0
-492 -288 0
-337 -289 0
-338 -290 0
-339 -291 0
-529 -295 0
-530 -296 0
-531 -297 0
-349 -298 0
-350 -299 0
-351 -300 0
-379 -298 0
-380 -299 0
-381 -300 0
-409 -298 0
-410 -299 0
-411 -300 0
-523 -298 0
-524 -299 0
-525 -300 0
-550 -298 0
-551 -299 0
-552 -300 0
-571 -301 0
-572 -302 0
-573 -303 0
-508 -304 0
-509 -305 0
-510 -306 0
-439 -307 0
-440 -308 0
-441 -309 0
-520 -307 0
-521 -308 0
-522 -309 0
-559 -307 0
-560 -308 0
-561 -309 0
-553 -310 0
-554 -311 0
-555 -312 0
-595 -310 0
-596 -311 0
-597 -312 0
-325 -313 0
-326 -314 0
-327 -315 0
-382 -313 0
-383 -314 0
-384 -315 0
-523 -313 0
-524 -314 0
-525 -315 0
-553 -313 0
-554 -314 0
-555 -315 0
-337 -316 0
-338 -317 0
-339 -318 0
-418 -316 0
-419 -317 0
-420 -318 0
-454 -316 0
-455 -317 0
-456 -318 0
-487 -316 0
-488 -317 0
-489 -318 0
-346 -319 0
-347 -320 0
-348 -321 0
-361 -319 0
-362 -320 0
-363 -321 0
-370 -322 0
-371 -323 0
-372 -324 0
-346 -325 0
-347 -326 0
-348 -327 0
-529 -325 0
-530 -326 0
-531 -327 0
-373 -328 0
-374 -329 0
-375 -330 0
-406 -331 0
-407 -332 0
-408 -333 0
-547 -331 0
-548 -332 0
-549 -333 0
-352 -334 0
-353 -335 0
-354 -336 0
-490 -334 0
-491 -335 0
-492 -336 0
-568 -334 0
-569 -335 0
-570 -336 0
-574 -334 0
-575 -335 0
-576 -336 0
-454 -337 0
-455 -338 0
-456 -339 0
-460 -337 0
-461 -338 0
-462 -339 0
-517 -337 0
-518 -338 0
-519 -339 0
-523 -340 0
-524 -341 0
-525 -342 0
-472 -343 0
-473 -344 0
-474 -345 0
-541 -343 0
-542 -344 0
-543 -345 0
-556 -343 0
-557 -344 0
-558 -345 0
-472 -346 0
-473 -347 0
-474 -348 0
-523 -346 0
-524 -347 0
-525 -348 0
-532 -346 0
-533 -347 0
-534 -348 0
-589 -346 0
-590 -347 0
-591 -348 0
-379 -349 0
-380 -350 0
-381 -351 0
-547 -349 0
-548 -350 0
-549 -351 0
-559 -349 0
-560 -350 0
-561 -351 0
-367 -352 0
-368 -353 0
-369 -354 0
-490 -352 0
-491 -353 0
-492 -354 0
-553 -358 0
-554 -359 0
-555 -360 0
-385 -361 0
-386 -362 0
-387 -363 0
-505 -361 0
-506 -362 0
-507 -363 0
-532 -361 0
-533 -362 0
-534 -363 0
-439 -364 0
-440 -365 0
-441 -366 0
-532 -364 0
-533 -365 0
-534 -366 0
-469 -367 0
-470 -368 0
-471 -369 0
-562 -367 0
-563 -368 0
-564 -369 0
-385 -370 0
-386 -371 0
-387 -372 0
-538 -370 0
-539 -371 0
-540 -372 0
-574 -370 0
-575 -371 0
-576 -372 0
-442 -376 0
-443 -377 0
-444 -378 0
-430 -382 0
-431 -383 0
-432 -384 0
-433 -382 0
-434 -383 0
-435 -384 0
-457 -382 0
-458 -383 0
-459 -384 0
-511 -382 0
-512 -383 0
-513 -384 0
-577 -385 0
-578 -386 0
-579 -387 0
-532 -388 0
-533 -389 0
-534 -390 0
-580 -388 0
-581 -389 0
-582 -390 0
-544 -391 0
-545 -392 0
-546 -393 0
-415 -394 0
-416 -395 0
-417 -396 0
-469 -394 0
-470 -395 0
-471 -396 0
-553 -394 0
-554 -395 0
-555 -396 0
-598 -394 0
-599 -395 0
-600 -396 0
-469 -397 0
-470 -398 0
-471 -399 0
-586 -397 0
-587 -398 0
-588 -399 0
-556 -403 0
-557 -404 0
-558 -405 0
-421 -406 0
-422 -407 0
-423 -408 0
-592 -406 0
-593 -407 0
-594 -408 0
-478 -409 0
-479 -410 0
-480 -411 0
-523 -409 0
-524 -410 0
-525 -411 0
-565 -412 0
-566 -413 0
-567 -414 0
-583 -412 0
-584 -413 0
-585 -414 0
-568 -415 0
-569 -416 0
-570 -417 0
-457 -418 0
-458 -419 0
-459 -420 0
-481 -418 0
-482 -419 0
-483 -420 0
-559 -418 0
-560 -419 0
-561 -420 0
-583 -421 0
-584 -422 0
-585 -423 0
-478 -424 0
-479 -425 0
-480 -426 0
-559 -424 0
-560 -425 0
-561 -426 0
-481 -427 0
-482 -428 0
-483 -429 0
-499 -427 0
-500 -428 0
-501 -429 0
-514 -427 0
-515 -428 0
-516 -429 0
-544 -427 0
-545 -428 0
-546 -429 0
-580 -427 0
-581 -428 0
-582 -429 0
-574 -433 0
-575 -434 0
-576 -435 0
-589 -433 0
-590 -434 0
-591 -435 0
-466 -436 0
-467 -437 0
-468 -438 0
-520 -436 0
-521 -437 0
-522 -438 0
-529 -436 0
-530 -437 0
-531 -438 0
-508 -442 0
-509 -443 0
-510 -444 0
-547 -442 0
-548 -443 0
-549 -444 0
-538 -445 0
-539 -446 0
-540 -447 0
-487 -448 0
-488 -449 0
-489 -450 0
-559 -448 0
-560 -449 0
-561 -450 0
-487 -451 0
-488 -452 0
-489 -453 0
-556 -451 0
-557 -452 0
-558 -453 0
-562 -451 0
-563 -452 0
-564 -453 0
-592 -451 0
-593 -452 0
-594 -453 0
-463 -454 0
-464 -455 0
-465 -456 0
-538 -457 0
-539 -458 0
-540 -459 0
-565 -475 0
-566 -476 0
-567 -477 0
-550 -490 0
-551 -491 0
-552 -492 0
-535 -496 0
-536 -497 0
-537 -498 0
-550 -496 0
-551 -497 0
-552 -498 0
-568 -496 0
-569 -497 0
-570 -498 0
-583 -496 0
-584 -497 0
-585 -498 0
-592 -496 0
-593 -497 0
-594 -498 0
-565 -502 0
-566 -503 0
-567 -504 0
-556 -505 0
-557 -506 0
-558 -507 0
-520 -508 0
-521 -509 0
-522 -510 0
-598 -508 0
-599 -509 0
-600 -510 0
-523 -511 0
-524 -512 0
-525 -513 0
-526 -511 0
-527 -512 0
-528 -513 0
-562 -514 0
-563 -515 0
-564 -516 0
-544 -532 0
-545 -533 0
-546 -534 0
-553 -532 0
-554 -533 0
-555 -534 0
-550 -538 0
-551 -539 0
-552 -540 0
-586 -541 0
-587 -542 0
-588 -543 0
-577 -556 0
-578 -557 0
-579 -558 0
-583 -574 0
-584 -575 0
-585 -576 0
-586 -574 0
-587 -575 0
-588 -576 0
